(declare-datatypes ((List_Int 0)) (((Nil_List_Int ) (Cons_List_Int (Cons_List_Int_0 Int) (Cons_List_Int_1 List_Int)))))
(declare-fun fn_count (Int List_Int) Int)
(declare-fun fn_length_Int (List_Int) Int)
(declare-fun fn_append_Int (List_Int List_Int) List_Int)
(declare-datatypes ((Run 0)) (((Run_Run (Run_Run_0 Int) (Run_Run_1 Int)))))
(declare-datatypes ((List_Run 0)) (((Nil_List_Run ) (Cons_List_Run (Cons_List_Run_0 Run) (Cons_List_Run_1 List_Run)))))
(declare-fun fn_length_Run (List_Run) Int)
(declare-fun fn_rle_encode (List_Int) List_Run)
(declare-fun fn_rle_decode (List_Run) List_Int)
(declare-fun fn_rle_expand (Run) List_Int)
(assert (forall ((p0 Int) (p1 List_Int)) (! (= (fn_count p0 p1) (ite ((_ is Nil_List_Int) p1) 0 (ite (= (Cons_List_Int_0 p1) p0) (+ 1 (fn_count p0 (Cons_List_Int_1 p1))) (fn_count p0 (Cons_List_Int_1 p1))))) :pattern ((fn_count p0 p1)))))
(assert (forall ((p0 List_Int)) (! (= (fn_length_Int p0) (ite ((_ is Nil_List_Int) p0) 0 (+ 1 (fn_length_Int (Cons_List_Int_1 p0))))) :pattern ((fn_length_Int p0)))))
(assert (forall ((p0 List_Int) (p1 List_Int)) (! (= (fn_append_Int p0 p1) (ite ((_ is Nil_List_Int) p0) p1 (Cons_List_Int (Cons_List_Int_0 p0) (fn_append_Int (Cons_List_Int_1 p0) p1)))) :pattern ((fn_append_Int p0 p1)))))
(assert (forall ((p0 List_Run)) (! (= (fn_length_Run p0) (ite ((_ is Nil_List_Run) p0) 0 (+ 1 (fn_length_Run (Cons_List_Run_1 p0))))) :pattern ((fn_length_Run p0)))))
(assert (forall ((p0 List_Int)) (! (= (fn_rle_encode p0) (ite ((_ is Nil_List_Int) p0) Nil_List_Run (ite ((_ is Nil_List_Run) (fn_rle_encode (Cons_List_Int_1 p0))) (Cons_List_Run (Run_Run 1 (Cons_List_Int_0 p0)) Nil_List_Run) (ite (= (Run_Run_1 (Cons_List_Run_0 (fn_rle_encode (Cons_List_Int_1 p0)))) (Cons_List_Int_0 p0)) (Cons_List_Run (Run_Run (+ (Run_Run_0 (Cons_List_Run_0 (fn_rle_encode (Cons_List_Int_1 p0)))) 1) (Run_Run_1 (Cons_List_Run_0 (fn_rle_encode (Cons_List_Int_1 p0))))) (Cons_List_Run_1 (fn_rle_encode (Cons_List_Int_1 p0)))) (Cons_List_Run (Run_Run 1 (Cons_List_Int_0 p0)) (Cons_List_Run (Run_Run (Run_Run_0 (Cons_List_Run_0 (fn_rle_encode (Cons_List_Int_1 p0)))) (Run_Run_1 (Cons_List_Run_0 (fn_rle_encode (Cons_List_Int_1 p0))))) (Cons_List_Run_1 (fn_rle_encode (Cons_List_Int_1 p0))))))))) :pattern ((fn_rle_encode p0)))))
(assert (forall ((q0 List_Int)) (= (fn_append_Int q0 Nil_List_Int) q0)))
(assert (forall ((q0 List_Int) (q1 List_Int) (q2 List_Int)) (= (fn_append_Int (fn_append_Int q0 q1) q2) (fn_append_Int q0 (fn_append_Int q1 q2)))))
(assert (forall ((q0 List_Int)) (<= (fn_length_Run (fn_rle_encode q0)) (fn_length_Int q0))))
(assert (forall ((q0 Int) (q1 List_Int)) (= (fn_length_Run (fn_rle_encode (Cons_List_Int q0 (Cons_List_Int q0 q1)))) (fn_length_Run (fn_rle_encode (Cons_List_Int q0 q1))))))
(assert (= (fn_rle_encode (Cons_List_Int 4 (Cons_List_Int 4 (Cons_List_Int (- 2) (Cons_List_Int (- 2) (Cons_List_Int (- 2) (Cons_List_Int 4 Nil_List_Int))))))) (Cons_List_Run (Run_Run 2 4) (Cons_List_Run (Run_Run 3 (- 2)) (Cons_List_Run (Run_Run 1 4) Nil_List_Run)))))
(declare-const b0 List_Int)
(assert (not (= (fn_rle_decode (fn_rle_encode b0)) b0)))
(check-sat)
